[4/30/19, 3:50:56 PM, INFO] Initialization of z.
[4/30/19, 3:50:56 PM, INFO] Initialization of Intern.
[4/30/19, 3:50:56 PM, INFO] Initialization of Rotation.
[4/30/19, 3:50:56 PM, INFO] Initialization of Week.
[4/30/19, 3:50:56 PM, INFO] Initialization of x.
[4/30/19, 3:50:56 PM, INFO] Initialization of D.
[4/30/19, 3:50:56 PM, INFO] Initialization of y1.
[4/30/19, 3:50:56 PM, INFO] Initialization of y2.
[4/30/19, 3:50:56 PM, INFO] Initialization of y3.
[4/30/19, 3:50:56 PM, INFO] Initialization of y4.
[4/30/19, 3:50:56 PM, INFO] Initialization of y5.
[4/30/19, 3:50:56 PM, INFO] Initialization of y6.
[4/30/19, 3:50:56 PM, INFO] Initialization of y7.
[4/30/19, 3:50:56 PM, INFO] Initialization of y8.
[4/30/19, 3:50:56 PM, INFO] Initialization of y9.
[4/30/19, 3:50:56 PM, INFO] Initialization of y10.
[4/30/19, 3:50:56 PM, INFO] Initialization of y11.
[4/30/19, 3:50:56 PM, INFO] Initialization of L1.
[4/30/19, 3:50:56 PM, INFO] Initialization of L2.
[4/30/19, 3:50:56 PM, INFO] Initialization of L3.
[4/30/19, 3:50:56 PM, WARN] Effective number of workers to be used for solve has been updated to: '10' (original value was: '0')
[4/30/19, 3:50:56 PM, INFO] CPXPARAM_Threads                                 10
[4/30/19, 3:50:56 PM, INFO] Tried aggregator 1 time.
[4/30/19, 3:50:56 PM, INFO] MIP Presolve eliminated 1056 rows and 3034 columns.
[4/30/19, 3:50:56 PM, INFO] MIP Presolve modified 406 coefficients.
[4/30/19, 3:50:56 PM, INFO] Reduced MIP has 7807 rows, 13396 columns, and 54893 nonzeros.
[4/30/19, 3:50:56 PM, INFO] Reduced MIP has 13396 binaries, 0 generals, 0 SOSs, and 0 indicators.
[4/30/19, 3:50:56 PM, INFO] Presolve time = 0.08 sec. (58.06 ticks)
[4/30/19, 3:50:57 PM, INFO] Probing fixed 286 vars, tightened 0 bounds.
[4/30/19, 3:50:57 PM, INFO] Probing time = 0.16 sec. (53.82 ticks)
[4/30/19, 3:50:57 PM, INFO] Tried aggregator 1 time.
[4/30/19, 3:50:57 PM, INFO] MIP Presolve eliminated 286 rows and 286 columns.
[4/30/19, 3:50:57 PM, INFO] Reduced MIP has 7521 rows, 13110 columns, and 53232 nonzeros.
[4/30/19, 3:50:57 PM, INFO] Reduced MIP has 13110 binaries, 0 generals, 0 SOSs, and 0 indicators.
[4/30/19, 3:50:57 PM, INFO] Presolve time = 0.07 sec. (50.29 ticks)
[4/30/19, 3:50:57 PM, INFO] Probing time = 0.03 sec. (6.11 ticks)
[4/30/19, 3:50:57 PM, INFO] Clique table members: 32076.
[4/30/19, 3:50:57 PM, INFO] MIP emphasis: balance optimality and feasibility.
[4/30/19, 3:50:57 PM, INFO] MIP search method: dynamic search.
[4/30/19, 3:50:57 PM, INFO] Parallel mode: deterministic, using up to 10 threads.
[4/30/19, 3:50:58 PM, INFO] Root relaxation solution time = 0.98 sec. (679.92 ticks)
[4/30/19, 3:50:58 PM, INFO]         Nodes                                         Cuts/
[4/30/19, 3:50:58 PM, INFO]    Node  Left     Objective  IInf  Best Integer    Best Bound    ItCnt     Gap
[4/30/19, 3:50:58 PM, INFO]       0     0      594.0000  1639                    594.0000        0         
[4/30/19, 3:51:05 PM, INFO]       0     0      594.0000  1260                  Cuts: 1187     5890         
[4/30/19, 3:51:18 PM, INFO]       0     0      594.0000  1351                  Cuts: 1274    14080         
[4/30/19, 3:51:38 PM, INFO]       0     0      594.0000  1599                   Cuts: 940    23635         
[4/30/19, 3:51:56 PM, INFO]       0     2      594.0000  1047                    594.0000    23635         
[4/30/19, 3:51:56 PM, INFO] Elapsed time = 59.46 sec. (34924.72 ticks, tree = 0.01 MB, solutions = 0)
[4/30/19, 3:52:13 PM, INFO]       1     3      594.0000  1069                    594.0000    40631         
[4/30/19, 3:52:13 PM, INFO]       2     4      594.0000  1280                    594.0000    49627         
[4/30/19, 3:52:18 PM, INFO]       4     4      594.0000   975                    594.0000    42044         
[4/30/19, 3:52:18 PM, INFO]       5     3      594.0000   934                    594.0000    42014         
[4/30/19, 3:52:20 PM, INFO]       6     6      594.0000  1358                    594.0000    59814         
[4/30/19, 3:52:25 PM, INFO]       8     6      594.0000  1255                    594.0000    58522         
[4/30/19, 3:52:26 PM, INFO]       9     5      594.0000  1140                    594.0000    58628         
[4/30/19, 3:52:26 PM, INFO]      10     9      594.0000  1210                    594.0000    88978         
[4/30/19, 3:52:32 PM, INFO]      11     7      594.0000  1189                    594.0000    61271         
[4/30/19, 3:52:33 PM, INFO]      13     8      594.0000  1180                    594.0000    87411         
[4/30/19, 3:52:33 PM, INFO] Elapsed time = 96.84 sec. (58342.82 ticks, tree = 0.01 MB, solutions = 0)
[4/30/19, 3:52:34 PM, INFO]      14    15      594.0000  1144                    594.0000   144533         
[4/30/19, 3:52:36 PM, INFO]      16    10      594.0000  1241                    594.0000    99390         
[4/30/19, 3:52:37 PM, INFO]      17    13      594.0000  1091                    594.0000   130707         
[4/30/19, 3:52:39 PM, INFO]      24    17      594.0000   992                    594.0000   169349         
[4/30/19, 3:52:41 PM, INFO]      28    11      594.0000  1160                    594.0000   115185         
[4/30/19, 3:52:43 PM, INFO]      36    24      594.0000  1079                    594.0000   261725         
[4/30/19, 3:52:47 PM, INFO]      51    26      594.0000  1248                    594.0000   297851         
[4/30/19, 3:52:48 PM, INFO]      54    24      594.0000  1322                    594.0000   251275         
[4/30/19, 3:52:51 PM, INFO]      58    26      594.0000  1145                    594.0000   288809         
[4/30/19, 3:52:52 PM, INFO]      60    30      594.0000  1125                    594.0000   323146         
[4/30/19, 3:52:52 PM, INFO] Elapsed time = 115.58 sec. (71349.92 ticks, tree = 1.17 MB, solutions = 0)
[4/30/19, 3:52:54 PM, INFO]      69    34      594.0000  1178                    594.0000   349883         
[4/30/19, 3:52:56 PM, INFO]      72    41      594.0000  1170                    594.0000   400915         
[4/30/19, 3:52:57 PM, INFO]      74    58      594.0000  1004                    594.0000   427080         
[4/30/19, 3:53:00 PM, INFO]      77    37      594.0000  1164                    594.0000   374335         
[4/30/19, 3:53:01 PM, INFO]      98    67      594.0000   871                    594.0000   465438         
[4/30/19, 3:53:03 PM, INFO]     134    78      594.0000   821                    594.0000   472875         
[4/30/19, 3:53:05 PM, INFO]     194    86      594.0000   871                    594.0000   527856         
[4/30/19, 3:53:07 PM, INFO]     232    76      594.0000  1639                    594.0000   545066         
[4/30/19, 3:53:08 PM, INFO]     266    91      594.0000  1442                    594.0000   575499         
[4/30/19, 3:53:10 PM, INFO]     295    95      594.0000  1367                    594.0000   577107         
[4/30/19, 3:53:10 PM, INFO] Elapsed time = 133.80 sec. (81954.72 ticks, tree = 2.66 MB, solutions = 0)
[4/30/19, 3:53:12 PM, INFO]     331   147      594.0000   643                    594.0000   599782         
[4/30/19, 3:53:14 PM, INFO]     368   151      594.0000  1483                    594.0000   617973         
[4/30/19, 3:53:15 PM, INFO]     375   163      594.0000   679                    594.0000   606113         
[4/30/19, 3:53:17 PM, INFO]     402   189      594.0000   747                    594.0000   641543         
[4/30/19, 3:53:19 PM, INFO]     436   211      594.0000   819                    594.0000   658894         
[4/30/19, 3:53:21 PM, INFO]     498   236      594.0000   610                    594.0000   668443         
[4/30/19, 3:53:23 PM, INFO]     534   254      594.0000   700                    594.0000   680033         
[4/30/19, 3:53:25 PM, INFO]     579   273      594.0000   733                    594.0000   690609         
[4/30/19, 3:53:27 PM, INFO]     617   408      594.0000   732                    594.0000   761192         
[4/30/19, 3:53:29 PM, INFO]     657   221      594.0000   766                    594.0000   665044         
[4/30/19, 3:53:29 PM, INFO] Elapsed time = 152.29 sec. (91844.21 ticks, tree = 6.91 MB, solutions = 0)
[4/30/19, 3:53:31 PM, INFO]     705   451      594.0000   560                    594.0000   780512         
[4/30/19, 3:53:33 PM, INFO]     719   320      594.0000   742                    594.0000   720356         
[4/30/19, 3:53:35 PM, INFO]     728   549    infeasible                          594.0000   855194         
[4/30/19, 3:53:39 PM, INFO]     750   658    infeasible                          594.0000   910731         
[4/30/19, 3:53:41 PM, INFO]     764   653    infeasible                          594.0000   919043         
[4/30/19, 3:53:44 PM, INFO]     781   648    infeasible                          594.0000   926095         
[4/30/19, 3:53:46 PM, INFO]     787   600      594.0000   829                    594.0000   879498         
[4/30/19, 3:53:51 PM, INFO]     796   669      594.0000   827                    594.0000   932435         
[4/30/19, 3:53:53 PM, INFO]     816   682      594.0000   695                    594.0000   938784         
[4/30/19, 3:53:55 PM, INFO]     833   682      594.0000   744                    594.0000   957005         
[4/30/19, 3:53:55 PM, INFO] Elapsed time = 179.19 sec. (101855.67 ticks, tree = 14.02 MB, solutions = 0)
[4/30/19, 3:53:58 PM, INFO]     846   690      594.0000   794                    594.0000  1037108         
[4/30/19, 3:54:01 PM, INFO]     856   694      594.0000   774                    594.0000  1040455         
[4/30/19, 3:54:04 PM, INFO]     874   677      594.0000   857                    594.0000   983883         
[4/30/19, 3:54:09 PM, INFO]     887   720      594.0000   862                    594.0000  1075845         
[4/30/19, 3:54:13 PM, INFO]     899   723      594.0000   772                    594.0000  1082255         
[4/30/19, 3:54:16 PM, INFO]     925   768      594.0000   744                    594.0000  1146081         
[4/30/19, 3:54:18 PM, INFO]     978   776      594.0000   641                    594.0000  1136988         
[4/30/19, 3:54:20 PM, INFO]    1043   750      594.0000   603                    594.0000  1120425         
[4/30/19, 3:54:22 PM, INFO]    1114   804      594.0000   656                    594.0000  1196734         
[4/30/19, 3:54:24 PM, INFO]    1221   831      594.0000   732                    594.0000  1183917         
[4/30/19, 3:54:24 PM, INFO] Elapsed time = 208.13 sec. (111824.41 ticks, tree = 20.24 MB, solutions = 0)
[4/30/19, 3:54:26 PM, INFO]    1306   825      594.0000   995                    594.0000  1172311         
[4/30/19, 3:54:28 PM, INFO]    1410   831      594.0000   835                    594.0000  1217178         
[4/30/19, 3:54:30 PM, INFO]    1491  1082      594.0000  1011                    594.0000  1402312         
[4/30/19, 3:54:32 PM, INFO]    1581   917    infeasible                          594.0000  1299511         
[4/30/19, 3:54:34 PM, INFO]    1647   924      594.0000   748                    594.0000  1272713         
[4/30/19, 3:54:37 PM, INFO]    1733  1054      594.0000   658                    594.0000  1379162         
[4/30/19, 3:54:39 PM, INFO]    1817  1274      594.0000   727                    594.0000  1533644         
[4/30/19, 3:54:40 PM, INFO]    1893  1445      594.0000   749                    594.0000  1635816         
[4/30/19, 3:54:42 PM, INFO]    1957  1458      594.0000   688                    594.0000  1645446         
[4/30/19, 3:54:44 PM, INFO]    2076  1296      594.0000   781                    594.0000  1548270         
[4/30/19, 3:54:44 PM, INFO] Elapsed time = 228.16 sec. (121476.03 ticks, tree = 36.34 MB, solutions = 0)
[4/30/19, 3:54:46 PM, INFO]    2202  1722      594.0000   768                    594.0000  1940167         
[4/30/19, 3:54:48 PM, INFO]    2303  1500      594.0000   716                    594.0000  1677364         
[4/30/19, 3:54:50 PM, INFO]    2407  1753      594.0000   766                    594.0000  1961478         
[4/30/19, 3:54:53 PM, INFO]    2509  1904      594.0000   883                    594.0000  2084810         
[4/30/19, 3:54:54 PM, INFO]    2606  1768      594.0000   694                    594.0000  1982352         
[4/30/19, 3:54:56 PM, INFO]    2693  2016      594.0000   639                    594.0000  2162075         
[4/30/19, 3:54:59 PM, INFO]    2772  2097      594.0000   683                    594.0000  2238954         
[4/30/19, 3:55:01 PM, INFO]    2840  2194      594.0000   806                    594.0000  2325107         
[4/30/19, 3:55:03 PM, INFO]    2907  2273      594.0000   689                    594.0000  2385746         
[4/30/19, 3:55:05 PM, INFO]    2952  2219      594.0000   784                    594.0000  2341221         
[4/30/19, 3:55:05 PM, INFO] Elapsed time = 249.10 sec. (131140.83 ticks, tree = 52.52 MB, solutions = 0)
[4/30/19, 3:55:08 PM, INFO]    2971  2319      594.0000  1744                    594.0000  2430782         
[4/30/19, 3:55:10 PM, INFO]    2982  2559    infeasible                          594.0000  2714852         
[4/30/19, 3:55:12 PM, INFO]    2989  2626      594.0000  1710                    594.0000  2784281         
[4/30/19, 3:55:14 PM, INFO]    3023  2636      594.0000  1000                    594.0000  2806577         
[4/30/19, 3:55:16 PM, INFO]    3056  2623      594.0000  1556                    594.0000  2780541         
[4/30/19, 3:55:18 PM, INFO]    3079  2625      594.0000  1555                    594.0000  2783802         
[4/30/19, 3:55:20 PM, INFO]    3110  2670      594.0000   851                    594.0000  2819371         
[4/30/19, 3:55:23 PM, INFO]    3124  2614      594.0000  1010                    594.0000  2789016         
[4/30/19, 3:55:25 PM, INFO]    3139  2653      594.0000  1555                    594.0000  2890790         
[4/30/19, 3:55:27 PM, INFO]    3161  2714      594.0000   935                    594.0000  3019732         
[4/30/19, 3:55:27 PM, INFO] Elapsed time = 270.30 sec. (141278.02 ticks, tree = 57.37 MB, solutions = 0)
[4/30/19, 3:55:28 PM, INFO]    3184  2720      594.0000   876                    594.0000  3026646         
[4/30/19, 3:55:31 PM, INFO]    3209  2762      594.0000  1038                    594.0000  3151231         
[4/30/19, 3:55:33 PM, INFO]    3242  2803      594.0000  1067                    594.0000  3298624         
[4/30/19, 3:55:35 PM, INFO]    3285  2810      594.0000   999                    594.0000  3303351         
[4/30/19, 3:55:37 PM, INFO]    3322  2805      594.0000   871                    594.0000  3223116         
[4/30/19, 3:55:38 PM, INFO]    3346  2806      594.0000   881                    594.0000  3229576         
[4/30/19, 3:55:40 PM, INFO]    3386  2849      594.0000   809                    594.0000  3353999         
[4/30/19, 3:55:43 PM, INFO]    3422  2842      594.0000   966                    594.0000  3410859         
[4/30/19, 3:55:45 PM, INFO]    3450  2846      594.0000   889                    594.0000  3418163         
[4/30/19, 3:55:53 PM, INFO]    3559  2976    infeasible                          594.0000  3644289         
[4/30/19, 3:55:53 PM, INFO] Elapsed time = 296.88 sec. (153999.96 ticks, tree = 63.37 MB, solutions = 0)
[4/30/19, 3:56:02 PM, INFO]    3672  3126      594.0000   865                    594.0000  3924013         
[4/30/19, 3:56:10 PM, INFO]    3765  3147    infeasible                          594.0000  4027613         
[4/30/19, 3:56:18 PM, INFO]    3808  3157      594.0000  1008                    594.0000  4080603         
[4/30/19, 3:56:27 PM, INFO]    3851  3034      594.0000  1691                    594.0000  3816899         
[4/30/19, 3:56:35 PM, INFO]    3898  3260      594.0000  1521                    594.0000  4246675         
[4/30/19, 3:56:43 PM, INFO]    3911  3269      594.0000  1514                    594.0000  4495980         
[4/30/19, 3:56:54 PM, INFO]    3927  3290      594.0000   949                    594.0000  4723416         
[4/30/19, 3:56:59 PM, INFO]    3937  3291      594.0000   810                    594.0000  4737932         
[4/30/19, 3:57:08 PM, INFO]    3953  3254      594.0000  1451                    594.0000  4433055         
[4/30/19, 3:57:17 PM, INFO]    3973  3289      594.0000   961                    594.0000  4986906         
[4/30/19, 3:57:17 PM, INFO] Elapsed time = 380.28 sec. (192967.74 ticks, tree = 69.71 MB, solutions = 0)
[4/30/19, 3:57:27 PM, INFO]    3996  3289      594.0000   874                    594.0000  5225690         
[4/30/19, 3:57:35 PM, INFO]    4017  3296      594.0000   791                    594.0000  5404920         
[4/30/19, 3:57:45 PM, INFO]    4045  3288    infeasible                          594.0000  5496798         
[4/30/19, 3:57:55 PM, INFO]    4073  3282      594.0000   968                    594.0000  5413673         
[4/30/19, 3:58:02 PM, INFO]    4088  3317      594.0000  1129                    594.0000  5721487         
[4/30/19, 3:58:09 PM, INFO]    4111  3323      594.0000  1328                    594.0000  5789648         
[4/30/19, 3:58:15 PM, INFO]    4136  3322      594.0000   922                    594.0000  5910455         
[4/30/19, 3:58:23 PM, INFO]    4157  3319      594.0000  1257                    594.0000  5820660         
[4/30/19, 3:58:30 PM, INFO]    4191  3333      594.0000  1067                    594.0000  6092873         
[4/30/19, 3:58:38 PM, INFO]    4231  3333    infeasible                          594.0000  6270805         
[4/30/19, 3:58:38 PM, INFO] Elapsed time = 461.44 sec. (232868.73 ticks, tree = 78.87 MB, solutions = 0)
[4/30/19, 3:58:45 PM, INFO]    4251  3345      594.0000  1042                    594.0000  6183988         
[4/30/19, 3:58:52 PM, INFO]    4274  3343    infeasible                          594.0000  6428788         
[4/30/19, 3:59:00 PM, INFO]    4294  3347      594.0000  1399                    594.0000  6531673         
[4/30/19, 3:59:08 PM, INFO]    4327  3341    infeasible                          594.0000  6622039         
[4/30/19, 3:59:16 PM, INFO]    4371  3366      594.0000   849                    594.0000  6617355         
[4/30/19, 3:59:27 PM, INFO]    4400  3404      594.0000  1002                    594.0000  6871946         
[4/30/19, 3:59:37 PM, INFO]    4458  3415    infeasible                          594.0000  6957625         
[4/30/19, 3:59:54 PM, INFO]    4502  3439      594.0000   911                    594.0000  6988164         
[4/30/19, 4:00:03 PM, INFO]    4543  3464      594.0000   905                    594.0000  7338698         
[4/30/19, 4:00:10 PM, INFO]    4597  3471      594.0000   889                    594.0000  7352240         
[4/30/19, 4:00:10 PM, INFO] Elapsed time = 554.09 sec. (271976.90 ticks, tree = 95.08 MB, solutions = 0)
[4/30/19, 4:00:19 PM, INFO]    4738  3581      594.0000   923                    594.0000  7701745         
[4/30/19, 4:00:28 PM, INFO]    4928  3618      594.0000   766                    594.0000  7728584         
[4/30/19, 4:00:36 PM, INFO]    5110  3633      594.0000   777                    594.0000  7792070         
[4/30/19, 4:00:44 PM, INFO]    5297  3906      594.0000   732                    594.0000  8558634         
[4/30/19, 4:00:53 PM, INFO]    5458  3938      594.0000  1372                    594.0000  8679534         
[4/30/19, 4:01:01 PM, INFO]    5607  3969      594.0000  1339                    594.0000  8735060         
[4/30/19, 4:01:09 PM, INFO]    5705  3976    infeasible                          594.0000  8757247         
[4/30/19, 4:01:17 PM, INFO]    5745  4257    infeasible                          594.0000  9458616         
[4/30/19, 4:01:28 PM, INFO]    5763  4382    infeasible                          594.0000  9864482         
[4/30/19, 4:01:36 PM, INFO]    5782  4387    infeasible                          594.0000 10224305         
[4/30/19, 4:01:36 PM, INFO] Elapsed time = 639.33 sec. (311067.11 ticks, tree = 121.36 MB, solutions = 0)
[4/30/19, 4:01:44 PM, INFO]    5804  4378      594.0000  1222                    594.0000 10103995         
[4/30/19, 4:01:54 PM, INFO]    5827  4377    infeasible                          594.0000 10393094         
[4/30/19, 4:02:03 PM, INFO]    5849  4378    infeasible                          594.0000 10513577         
[4/30/19, 4:02:12 PM, INFO]    5866  4368    infeasible                          594.0000 10912507         
[4/30/19, 4:02:19 PM, INFO]    5877  4364    infeasible                          594.0000 10931304         
[4/30/19, 4:02:27 PM, INFO]    5889  4356    infeasible                          594.0000 11415020         
[4/30/19, 4:02:35 PM, INFO]    5900  4363      594.0000   908                    594.0000 11427210         
[4/30/19, 4:02:43 PM, INFO]    5909  4360      594.0000  1405                    594.0000 11439392         
[4/30/19, 4:02:52 PM, INFO]    5918  4355    infeasible                          594.0000 11500684         
[4/30/19, 4:03:00 PM, INFO]    5932  4358      594.0000  1100                    594.0000 11483525         
[4/30/19, 4:03:00 PM, INFO] Elapsed time = 724.16 sec. (351787.43 ticks, tree = 125.06 MB, solutions = 0)
[4/30/19, 4:03:11 PM, INFO]    5950  4373      594.0000  1713                    594.0000 11609699         
[4/30/19, 4:03:19 PM, INFO]    5961  4371      594.0000  1123                    594.0000 11711452         
[4/30/19, 4:03:27 PM, INFO]    5978  4366      594.0000  1453                    594.0000 11097732         
[4/30/19, 4:03:35 PM, INFO]    5992  4385      594.0000  1540                    594.0000 12058000         
[4/30/19, 4:03:43 PM, INFO]    6004  4382      594.0000  1757                    594.0000 12190300         
[4/30/19, 4:03:54 PM, INFO]    6013  4388      594.0000  1222                    594.0000 12073981         
[4/30/19, 4:04:01 PM, INFO]    6026  4377      594.0000  1175                    594.0000 12159605         
[4/30/19, 4:04:11 PM, INFO]    6041  4388    infeasible                          594.0000 12307174         
[4/30/19, 4:04:21 PM, INFO]    6053  4380    infeasible                          594.0000 12454087         
[4/30/19, 4:04:30 PM, INFO]    6065  4389    infeasible                          594.0000 12427347         
[4/30/19, 4:04:30 PM, INFO] Elapsed time = 814.02 sec. (393080.64 ticks, tree = 130.65 MB, solutions = 0)
[4/30/19, 4:04:41 PM, INFO]    6089  4404      594.0000  1588                    594.0000 12711979         
[4/30/19, 4:04:50 PM, INFO]    6118  4403    infeasible                          594.0000 12870316         
[4/30/19, 4:04:57 PM, INFO]    6133  4406      594.0000   907                    594.0000 12707509         
[4/30/19, 4:05:06 PM, INFO]    6154  4433      594.0000  1559                    594.0000 12991420         
[4/30/19, 4:05:14 PM, INFO]    6183  4437      594.0000   966                    594.0000 13095679         
[4/30/19, 4:05:22 PM, INFO]    6221  4442    infeasible                          594.0000 13110767         
[4/30/19, 4:05:30 PM, INFO]    6246  4475      594.0000   983                    594.0000 13301513         
[4/30/19, 4:05:48 PM, INFO]    6287  4463      594.0000  1112                    594.0000 13237428         
[4/30/19, 4:05:56 PM, INFO]    6318  4516      594.0000   870                    594.0000 13395789         
[4/30/19, 4:06:04 PM, INFO]    6344  4543    infeasible                          594.0000 13745114         
[4/30/19, 4:06:04 PM, INFO] Elapsed time = 907.79 sec. (433070.88 ticks, tree = 145.32 MB, solutions = 0)
[4/30/19, 4:06:13 PM, INFO]    6369  4573    infeasible                          594.0000 13988742         
[4/30/19, 4:06:23 PM, INFO]    6387  4574      594.0000   881                    594.0000 14274670         
[4/30/19, 4:06:31 PM, INFO]    6409  4571      594.0000   979                    594.0000 14184440         
[4/30/19, 4:06:38 PM, INFO]    6426  4573      594.0000  1212                    594.0000 14197863         
[4/30/19, 4:06:47 PM, INFO]    6460  4594      594.0000  1174                    594.0000 14484314         
[4/30/19, 4:06:55 PM, INFO]    6508  4630      594.0000   788                    594.0000 14688036         
[4/30/19, 4:07:05 PM, INFO]    6570  4588      594.0000  1188                    594.0000 14422796         
[4/30/19, 4:07:14 PM, INFO]    6585  4644      594.0000   944                    594.0000 14997061         
[4/30/19, 4:07:22 PM, INFO]    6671  4725      594.0000  1196                    594.0000 15261570         
[4/30/19, 4:07:30 PM, INFO]    6758  4704      594.0000   938                    594.0000 15157645         
[4/30/19, 4:07:30 PM, INFO] Elapsed time = 993.42 sec. (471915.04 ticks, tree = 163.03 MB, solutions = 0)
[4/30/19, 4:07:38 PM, INFO]    6817  4712      594.0000  1044                    594.0000 15175142         
[4/30/19, 4:07:47 PM, INFO]    6911  4769      594.0000  1319                    594.0000 15323134         
[4/30/19, 4:07:55 PM, INFO]    6995  4810    infeasible                          594.0000 15733097         
[4/30/19, 4:08:03 PM, INFO]    7069  4880      594.0000  1809                    594.0000 15943602         
[4/30/19, 4:08:11 PM, INFO]    7188  4902      594.0000   756                    594.0000 15952148         
[4/30/19, 4:08:17 PM, INFO]    7247  4934      594.0000  1726                    594.0000 16062017         
[4/30/19, 4:08:33 PM, INFO]    7259  4757      594.0000   964                    594.0000 15419696         
[4/30/19, 4:09:08 PM, INFO] GUB cover cuts applied:  3
[4/30/19, 4:09:08 PM, INFO] Clique cuts applied:  1412
[4/30/19, 4:09:08 PM, INFO] Cover cuts applied:  2145
[4/30/19, 4:09:08 PM, INFO] Implied bound cuts applied:  1065
[4/30/19, 4:09:08 PM, INFO] Flow cuts applied:  1
[4/30/19, 4:09:08 PM, INFO] Mixed integer rounding cuts applied:  226
[4/30/19, 4:09:08 PM, INFO] Zero-half cuts applied:  249
[4/30/19, 4:09:08 PM, INFO] Gomory fractional cuts applied:  10
[4/30/19, 4:09:08 PM, INFO] Root node processing (before b&c):
[4/30/19, 4:09:08 PM, INFO]   Real time             =   59.03 sec. (34757.06 ticks)
[4/30/19, 4:09:08 PM, INFO] Parallel b&c, 10 threads:
[4/30/19, 4:09:08 PM, INFO]   Real time             = 1032.96 sec. (497016.04 ticks)
[4/30/19, 4:09:08 PM, INFO]   Sync time (average)   =  197.23 sec.
[4/30/19, 4:09:08 PM, INFO]   Wait time (average)   =    0.03 sec.
[4/30/19, 4:09:08 PM, INFO]                           ------------
[4/30/19, 4:09:08 PM, INFO] Total (root+branch&cut) = 1091.99 sec. (531773.10 ticks)
[4/30/19, 4:09:08 PM, INFO] Total time spent in post processing: 0 msecs.
[4/30/19, 4:09:08 PM, INFO] Solve finished with status: INFEASIBLE_SOLUTION.
